
  12    4
  10   10   10   10

   0   0   0   0   0   7 2 3 4 8 9 10 11 
   3  10  10  10  10   2 7 5 
   7  10  10  10  10   2 7 5 
   4  10  10  10  10   1 5 
   4  10  10  10  10   1 6 
   3  10  10  10  10   1 12
   2  10  10  10  10   1 12
   8  10  10  10  10   1 12
   2  10  10  10  10   1 12
   5  10  10  10  10   1 12
   9  10  10  10  10   1 12
   0   0   0   0   0   0 
